N = 7;
H = 6;
T = 2;

avail = array3d(1..N, 1..H, 1..T, [10, 2, 1, 10, 2, 7, 7, 4, 6, 2, 5, 9, 4, 9, 9, 4, 0, 5, 6, 9, 2, 0, 5, 9, 10, 4, 9, 5, 8, 3, 7, 7, 10, 3, 6, 6, 7, 10, 0, 4, 3, 1, 3, 0, 1, 4, 2, 5, 10, 6, 2, 6, 4, 6, 9, 5, 1, 5, 1, 3, 9, 0, 4, 4, 1, 3, 10, 8, 6, 10, 8, 2, 10, 0, 9, 4, 8, 7, 7, 7, 9, 1, 5, 0]);

r = array2d(1..H, 1..T, [2, 0, 2, 4, 2, 1, 3, 1, 2, 3, 2, 2]);
